problems/csplib-prob036/FixedLengthErrorCorrectingCodes-models/noch/O2/lingeling/model-p1-solution000001.eprime-solution
language ESSENCE' 1.0

letting c_ExplicitR9_Function1D be
        [[1, 4, 4, 4, 4, 3; int(1..6)], [2, 3, 4, 4, 4, 4; int(1..6)], [3, 4, 4, 4, 4, 4; int(1..6)],
         [4, 2, 4, 4, 4, 4; int(1..6)]; int(1..4)]
