problems/csplib-prob036/FixedLengthErrorCorrectingCodes-models/noch/O2/lingeling/model-p1-solution000001.solution
language Essence 1.3

letting c be
        {function(1 --> a, 2 --> d, 3 --> d, 4 --> d, 5 --> d, 6 --> c),
         function(1 --> b, 2 --> c, 3 --> d, 4 --> d, 5 --> d, 6 --> d),
         function(1 --> c, 2 --> d, 3 --> d, 4 --> d, 5 --> d, 6 --> d),
         function(1 --> d, 2 --> b, 3 --> d, 4 --> d, 5 --> d, 6 --> d)}
